7
0, 588, 934, 539, 814, 900, 883
588, 0, 348, 109, 366, 311, 561
934, 348, 0, 402, 433, 85, 551
539, 109, 402, 0, 475, 385, 485
814, 366, 433, 475, 0, 348, 886
900, 311, 85, 385, 348, 0, 610
883, 561, 551, 485, 886, 610, 0
